20 61 156
1 2 3
1 6 2
1 7 4
1 13 3
1 17 1
1 18 2
2 3 1
2 5 1
2 7 4
2 9 4
2 10 5
2 12 1
2 17 1
2 20 1
3 4 1
3 6 4
3 9 4
3 12 3
3 16 3
4 7 5
4 8 5
4 11 1
4 12 3
4 14 4
4 18 4
4 19 4
4 20 1
5 10 5
6 7 1
6 10 5
6 11 4
6 13 2
6 14 3
6 18 3
7 8 5
7 9 4
7 11 3
7 15 4
7 16 5
7 18 4
8 10 3
9 11 1
9 12 4
9 13 5
9 16 5
10 11 5
10 13 3
10 15 5
11 12 1
11 13 4
11 17 4
11 20 3
12 15 5
12 18 3
13 19 4
15 17 3
16 18 3
16 20 5
17 19 5
18 19 5
18 20 2
